
Gurobi 9.5.0 (linux64) logging started Wed Nov  8 21:02:47 2023

Set parameter LogFile to value "/lustre1/scratch/348/vsc34888/JointResearch/05.Models/06.Benchmarking/G.Representative_days_based_on_Line_Benefit_NN_OC_fy_2/9n_ByStages_nc20/openStarNet_9n_ByStages_nc20.log"
Set parameter Method to value 2
Set parameter MIPFocus to value 1
Set parameter Presolve to value 2
Set parameter RINS to value 100
Set parameter MIPGap to value 0.01
Set parameter Threads to value 36
Set parameter TimeLimit to value 604800
Set parameter IterationLimit to value 760000000
Gurobi Optimizer version 9.5.0 build v9.5.0rc5 (linux64)
Thread count: 36 physical cores, 36 logical processors, using up to 36 threads
Optimize a model with 5243 rows, 2822 columns and 16394 nonzeros
Model fingerprint: 0x7ea244f1
Variable types: 2786 continuous, 36 integer (36 binary)
Coefficient statistics:
  Matrix range     [9e-04, 3e+03]
  Objective range  [1e+00, 1e+00]
  Bounds range     [4e-04, 2e+00]
  RHS range        [4e-04, 1e+00]
Presolve removed 1703 rows and 864 columns
Presolve time: 0.02s
Presolved: 3540 rows, 1958 columns, 12542 nonzeros
Variable types: 1922 continuous, 36 integer (36 binary)
Found heuristic solution: objective 831.3014226
Root relaxation presolved: 3540 rows, 1958 columns, 12542 nonzeros

Root barrier log...

Ordering time: 0.07s

Barrier statistics:
 AA' NZ     : 1.542e+05
 Factor NZ  : 1.106e+06 (roughly 11 MB of memory)
 Factor Ops : 5.828e+08 (less than 1 second per iteration)
 Threads    : 36

                  Objective                Residual
Iter       Primal          Dual         Primal    Dual     Compl     Time
   0   3.70599693e+05 -3.15761118e+07  6.27e+00 7.96e+02  1.35e+04     0s
   1   4.34985145e+04 -9.11515940e+06  7.21e-01 1.42e-10  1.79e+03     0s
   2   9.67786319e+03 -1.19237013e+06  2.43e-03 1.98e-10  1.71e+02     0s
   3   3.07642609e+03 -3.74411833e+04  1.53e-05 1.86e-11  5.76e+00     0s
   4   1.03116475e+03 -7.87323510e+03  9.86e-13 3.64e-12  1.27e+00     0s
   5   5.83340060e+02 -2.02355395e+03  5.76e-13 2.73e-12  3.71e-01     0s
   6   3.93782093e+02 -8.16907183e+02  4.33e-13 3.64e-12  1.72e-01     0s
   7   2.37636320e+02 -3.29697493e+02  2.63e-13 1.82e-12  8.06e-02     0s
   8   1.40265934e+02 -8.67539956e+00  3.37e-13 1.82e-12  2.12e-02     0s
   9   1.09447762e+02  8.39204973e+01  9.87e-13 1.82e-12  3.63e-03     0s
  10   9.93381101e+01  9.34488373e+01  2.25e-12 3.64e-12  8.37e-04     0s
  11   9.82703845e+01  9.47184212e+01  1.44e-11 1.82e-12  5.05e-04     0s
  12   9.70405728e+01  9.53628891e+01  1.05e-11 3.64e-12  2.38e-04     0s
  13   9.62114545e+01  9.59213452e+01  6.86e-11 1.82e-12  4.12e-05     0s
  14   9.60846918e+01  9.60761231e+01  3.08e-12 5.46e-12  1.22e-06     0s
  15   9.60790117e+01  9.60790031e+01  8.72e-13 3.64e-12  1.23e-09     0s
  16   9.60790060e+01  9.60790060e+01  1.51e-12 3.64e-12  1.23e-12     0s

Barrier solved model in 16 iterations and 0.49 seconds (0.18 work units)
Optimal objective 9.60790060e+01


Root relaxation: objective 9.607901e+01, 177 iterations, 0.46 seconds (0.14 work units)

    Nodes    |    Current Node    |     Objective Bounds      |     Work
 Expl Unexpl |  Obj  Depth IntInf | Incumbent    BestBd   Gap | It/Node Time

     0     0   96.07901    0    6  831.30142   96.07901  88.4%     -    0s
H    0     0                     728.0465488   96.07901  86.8%     -    0s
H    0     0                     104.6019856   96.07901  8.15%     -    0s
     0     0  103.56995    0    1  104.60199  103.56995  0.99%     -    0s

Cutting planes:
  Gomory: 1
  Implied bound: 2
  MIR: 58
  Relax-and-lift: 3

Explored 1 nodes (258 simplex iterations) in 0.54 seconds (0.21 work units)
Thread count was 36 (of 36 available processors)

Solution count 3: 104.602 728.047 831.301 

Optimal solution found (tolerance 1.00e-02)
Best objective 1.046019855970e+02, best bound 1.035699499507e+02, gap 0.9866%

Gurobi 9.5.0 (linux64) logging started Wed Nov  8 21:02:48 2023

Set parameter LogFile to value "/lustre1/scratch/348/vsc34888/JointResearch/05.Models/06.Benchmarking/G.Representative_days_based_on_Line_Benefit_NN_OC_fy_2/9n_ByStages_nc20/openStarNet_9n_ByStages_nc20.log"
Set parameter Method to value 2
Set parameter MIPFocus to value 1
Set parameter Presolve to value 2
Set parameter RINS to value 100
Set parameter MIPGap to value 0.01
Set parameter Threads to value 36
Set parameter TimeLimit to value 604800
Set parameter IterationLimit to value 760000000
No parameters matching 'relax_integrality' found
Gurobi Optimizer version 9.5.0 build v9.5.0rc5 (linux64)
Thread count: 36 physical cores, 36 logical processors, using up to 36 threads
Optimize a model with 5243 rows, 2786 columns and 13478 nonzeros
Model fingerprint: 0x173d6dc7
Coefficient statistics:
  Matrix range     [9e-04, 3e+03]
  Objective range  [1e+00, 1e+00]
  Bounds range     [4e-04, 2e+00]
  RHS range        [4e-04, 2e+01]
Presolve removed 4523 rows and 1524 columns
Presolve time: 0.01s
Presolved: 720 rows, 1262 columns, 2762 nonzeros

Ordering time: 0.00s

Barrier statistics:
 AA' NZ     : 2.020e+03
 Factor NZ  : 7.400e+03 (roughly 1 MB of memory)
 Factor Ops : 9.116e+04 (less than 1 second per iteration)
 Threads    : 1

                  Objective                Residual
Iter       Primal          Dual         Primal    Dual     Compl     Time
   0   4.21763348e+05 -1.84597888e+07  4.09e+00 1.82e-12  1.60e+04     0s
   1   6.04117270e+04 -3.70432315e+06  4.60e-01 1.00e-11  1.95e+03     0s
   2   1.37676616e+04 -6.05178212e+05  2.27e-02 9.13e-12  2.34e+02     0s
   3   4.47791626e+03 -2.82173361e+04  2.04e-14 5.00e-12  1.18e+01     0s
   4   9.06686324e+02 -5.37735902e+03  1.41e-13 5.46e-12  2.27e+00     0s
   5   5.40009509e+02 -1.21177509e+03  8.35e-14 1.82e-12  6.34e-01     0s
   6   2.95064683e+02 -3.05830969e+02  6.48e-14 3.64e-12  2.17e-01     0s
   7   1.59097975e+02 -7.31339305e+01  1.83e-13 3.64e-12  8.40e-02     0s
   8   1.13697863e+02  6.22806858e+01  1.56e-13 1.82e-12  1.86e-02     0s
   9   1.07012434e+02  1.00145519e+02  2.34e-13 1.82e-12  2.48e-03     0s
  10   1.05183660e+02  1.03063648e+02  2.17e-12 1.82e-12  7.67e-04     0s
  11   1.04673128e+02  1.03919314e+02  1.30e-12 1.82e-12  2.73e-04     0s
  12   1.04606704e+02  1.04493344e+02  1.05e-12 3.64e-12  4.10e-05     0s
  13   1.04602771e+02  1.04596556e+02  1.14e-12 1.82e-12  2.25e-06     0s
  14   1.04601987e+02  1.04601980e+02  1.16e-12 1.82e-12  2.34e-09     0s
  15   1.04601986e+02  1.04601986e+02  2.68e-13 3.64e-12  2.34e-12     0s

Barrier solved model in 15 iterations and 0.02 seconds (0.01 work units)
Optimal objective 1.04601986e+02

Crossover log...

     237 DPushes remaining with DInf 0.0000000e+00                 0s
       0 DPushes remaining with DInf 0.0000000e+00                 0s

      32 PPushes remaining with PInf 0.0000000e+00                 0s
       0 PPushes remaining with PInf 0.0000000e+00                 0s

  Push phase complete: Pinf 0.0000000e+00, Dinf 1.8065757e-13      0s

Iteration    Objective       Primal Inf.    Dual Inf.      Time
      52    1.0460199e+02   0.000000e+00   0.000000e+00      0s

Solved in 52 iterations and 0.02 seconds (0.01 work units)
Optimal objective  1.046019856e+02
